Gurobi Optimizer version 9.1.2 build v9.1.2rc0 (linux64)
Thread count: 36 physical cores, 72 logical processors, using up to 32 threads
Optimize a model with 12 rows, 57 columns and 590 nonzeros
Model fingerprint: 0xf32eec78
Model has 47 quadratic constraints
Coefficient statistics:
  Matrix range     [2e-05, 3e+00]
  QMatrix range    [1e+00, 1e+00]
  QLMatrix range   [1e+00, 1e+00]
  Objective range  [8e-03, 7e-01]
  Bounds range     [1e+00, 1e+00]
  RHS range        [1e+00, 1e+00]
Presolve removed 9 rows and 0 columns

Continuous model is non-convex -- solving as a MIP.

Presolve removed 9 rows and 0 columns
Presolve time: 0.00s
Presolved: 189 rows, 57 columns, 443 nonzeros
Presolved model has 47 bilinear constraint(s)
Variable types: 57 continuous, 0 integer (0 binary)

Root relaxation: objective -1.743721e+00, 44 iterations, 0.00 seconds

    Nodes    |    Current Node    |     Objective Bounds      |     Work
 Expl Unexpl |  Obj  Depth IntInf | Incumbent    BestBd   Gap | It/Node Time

     0     0   -1.74372    0   38          -   -1.74372      -     -    0s
H    0     0                       0.6147548   -1.74372   384%     -    0s
     0     0   -1.64739    0    1    0.61475   -1.64739   368%     -    0s
H    0     0                      -1.6450460   -1.64739  0.14%     -    0s
     0     0     cutoff    0        -1.64505   -1.64505  0.00%     -    0s

Cutting planes:
  RLT: 25
  BQP: 3

Explored 1 nodes (76 simplex iterations) in 0.01 seconds
Thread count was 32 (of 72 available processors)

Solution count 2: -1.64505 0.614755 
No other solutions better than -1.64505

Optimal solution found (tolerance 1.00e-04)
Best objective -1.645045978473e+00, best bound -1.645045978473e+00, gap 0.0000%

User-callback calls 78, time in user-callback 0.00 sec
Gurobi Optimizer version 9.1.2 build v9.1.2rc0 (linux64)
Thread count: 36 physical cores, 72 logical processors, using up to 32 threads
Optimize a model with 24 rows, 120 columns and 2480 nonzeros
Model fingerprint: 0x12fea5bd
Model has 100 quadratic constraints
Coefficient statistics:
  Matrix range     [8e-06, 4e+00]
  QMatrix range    [1e+00, 1e+00]
  QLMatrix range   [1e+00, 1e+00]
  Objective range  [6e-03, 1e+00]
  Bounds range     [1e+00, 1e+00]
  RHS range        [1e+00, 1e+00]
Presolve removed 17 rows and 0 columns

Continuous model is non-convex -- solving as a MIP.

Presolve removed 17 rows and 0 columns
Presolve time: 0.00s
Presolved: 407 rows, 120 columns, 1232 nonzeros
Presolved model has 100 bilinear constraint(s)
Variable types: 120 continuous, 0 integer (0 binary)

Root relaxation: objective -8.135316e+00, 141 iterations, 0.00 seconds

    Nodes    |    Current Node    |     Objective Bounds      |     Work
 Expl Unexpl |  Obj  Depth IntInf | Incumbent    BestBd   Gap | It/Node Time

     0     0   -8.13532    0  100          -   -8.13532      -     -    0s
H    0     0                       1.2870661   -8.13532   732%     -    0s
     0     0   -5.73730    0  100    1.28707   -5.73730   546%     -    0s
H    0     0                       0.9338598   -5.73730   714%     -    0s
     0     0   -5.73387    0  100    0.93386   -5.73387   714%     -    0s
     0     0   -4.89280    0   90    0.93386   -4.89280   624%     -    0s
H    0     0                      -0.2988137   -4.89280  1537%     -    0s
     0     0   -4.87415    0   90   -0.29881   -4.87415  1531%     -    0s
     0     0   -4.75045    0   90   -0.29881   -4.75045  1490%     -    0s
     0     0   -4.73518    0  100   -0.29881   -4.73518  1485%     -    0s
     0     0   -4.67538    0  100   -0.29881   -4.67538  1465%     -    0s
     0     0   -4.67218    0  100   -0.29881   -4.67218  1464%     -    0s
     0     0   -4.65179    0   90   -0.29881   -4.65179  1457%     -    0s
     0     0   -4.63829    0   90   -0.29881   -4.63829  1452%     -    0s
     0     0   -4.63503    0   90   -0.29881   -4.63503  1451%     -    0s
     0     0   -4.63239    0  100   -0.29881   -4.63239  1450%     -    0s
     0     0   -4.62730    0   90   -0.29881   -4.62730  1449%     -    0s
H    0     0                      -0.6365359   -4.62730   627%     -    0s
     0     0   -4.62689    0  100   -0.63654   -4.62689   627%     -    0s
     0     0   -4.62471    0   90   -0.63654   -4.62471   627%     -    0s
H    0     0                      -1.9033989   -4.62471   143%     -    0s
H    0     0                      -1.9786015   -4.62471   134%     -    0s
     0     2   -4.62471    0   90   -1.97860   -4.62471   134%     -    0s
*  967  1028              33      -2.8512364   -4.13495  45.0%  31.5    0s
* 1058  1102              23      -3.5257455   -4.13495  17.3%  30.3    0s
* 1059  1102              24      -3.5257471   -4.13495  17.3%  30.2    0s
* 1466  1156              20      -3.6484501   -4.00407  9.75%  27.5    0s
* 1743  1362              28      -3.8057049   -3.90112  2.51%  25.7    0s
* 1752  1362              28      -3.8057477   -3.90112  2.51%  25.7    0s
* 1856  1242              29      -3.8059271   -3.84740  1.09%  25.0    0s
* 1910  1242              35      -3.8059735   -3.81789  0.31%  24.5    0s
* 1956  1242              18      -3.8094272   -3.81789  0.22%  24.2    0s
* 1960  1242              20      -3.8094308   -3.81789  0.22%  24.2    0s
* 1991  1242              24      -3.8095407   -3.81789  0.22%  23.8    0s
* 2251   745              20      -3.8095778   -3.80959  0.00%  21.9    0s

Cutting planes:
  RLT: 88
  BQP: 13
  PSD: 17

Explored 2685 nodes (49980 simplex iterations) in 0.65 seconds
Thread count was 32 (of 72 available processors)

Solution count 10: -3.80958 -3.80954 -3.80943 ... -3.52575

Optimal solution found (tolerance 1.00e-04)
Best objective -3.809577812412e+00, best bound -3.809587051722e+00, gap 0.0002%

User-callback calls 5669, time in user-callback 0.00 sec



objective value: -3.8095778124115287
objective bound: -3.809587051722435
x_opt: [0.0, 1.0, 0.9999999999999998, 1.0, 1.0, 0.0, 2.978478702141884e-6, 0.0, 0.27949946569959294, 1.0, 2.893667835728031e-16, 0.22515544371495994, 1.0, 1.0, 1.0, -1.4006579167444473e-16, -2.7293730901138506e-17, 0.0, 0.05310311419680853, 0.4949194343524156]
GUROBI solution time: 0.6501669883728027




